(set-info :smt-lib-version 2.6)
(set-logic QF_LIA)
(set-info :category "industrial")
(set-info :status sat)
(declare-fun x0 () Int)
(declare-fun x1 () Int)
(declare-fun x10 () Int)
(declare-fun x11 () Int)
(declare-fun x12 () Int)
(declare-fun x13 () Int)
(declare-fun x14 () Int)
(declare-fun x2 () Int)
(declare-fun x3 () Int)
(declare-fun x4 () Int)
(declare-fun x5 () Int)
(declare-fun x6 () Int)
(declare-fun x7 () Int)
(declare-fun x8 () Int)
(declare-fun x9 () Int)
(assert (let ((?v_25 (* 1 x10)) (?v_0 (* 0 x7)) (?v_1 (* 1 x9)) (?v_8 (* 2 x8)) (?v_5 (* 0 x0)) (?v_6 (* 0 x11)) (?v_3 (* 0 x2)) (?v_7 (* 1 x4)) (?v_29 (* 0 x8))) (let ((?v_14 (+ ?v_29 ?v_1))) (let ((?v_4 (+ ?v_0 ?v_14)) (?v_27 (* 1 x12)) (?v_9 (* 0 x4)) (?v_30 (* 0 x10)) (?v_19 (* 1 x5)) (?v_22 (* 0 x13)) (?v_18 (* 0 x3)) (?v_13 (* 0 x5)) (?v_28 (* 0 x6)) (?v_24 (* 0 x1)) (?v_16 (* 0 x12)) (?v_33 (* 0 x14)) (?v_35 (* 1 x14)) (?v_38 (* 0 x9)) (?v_34 (* 1 x13)) (?v_39 (* 1 x2)) (?v_20 (* (- 2) x11)) (?v_10 (* (- 1) x0)) (?v_32 (* (- 1) x5)) (?v_17 (* (- 1) x6)) (?v_37 (* (- 1) x12)) (?v_15 (* (- 1) x14)) (?v_2 (* (- 1) x13)) (?v_12 (* (- 1) x3)) (?v_11 (* (- 1) x2)) (?v_31 (* (- 1) x9)) (?v_23 (* (- 1) x11)) (?v_21 (* (- 1) x7)) (?v_26 (* (- 1) x4)) (?v_36 (* (- 1) x1))) (and (<= (+ ?v_20 (+ ?v_10 (+ ?v_32 (+ ?v_17 (+ ?v_25 (+ ?v_37 (+ (* 2 x14) (+ ?v_0 (+ ?v_1 ?v_8))))))))) 0) (<= (+ ?v_15 (+ ?v_5 (+ ?v_6 (+ (* 1 x1) (+ ?v_2 (+ ?v_3 (+ (* 1 x3) (+ ?v_7 ?v_4)))))))) 0) (<= (+ ?v_12 (+ (* 3 x0) (+ ?v_27 (+ ?v_2 (+ ?v_3 (+ ?v_9 ?v_4)))))) 1) (<= (+ ?v_5 (+ ?v_30 (+ ?v_6 (+ ?v_2 (+ ?v_3 (+ ?v_7 (+ ?v_19 ?v_8))))))) 0) (<= (+ (* (- 1) x10) (+ (* 1 x11) (+ ?v_11 (+ ?v_31 (+ ?v_22 (+ ?v_18 (+ ?v_9 (+ ?v_13 (+ ?v_28 ?v_0))))))))) 1) (<= (+ ?v_10 (+ ?v_24 (+ (* 3 x14) (+ (* (- 2) x7) (+ ?v_16 (+ ?v_11 (+ ?v_12 (+ ?v_13 ?v_14)))))))) 1) (<= (+ ?v_23 (+ ?v_15 (+ (* 1 x0) (+ ?v_16 (+ ?v_11 (+ ?v_17 (+ ?v_18 (+ ?v_19 (+ ?v_21 (* (- 2) x8)))))))))) (- 1)) (<= (+ ?v_20 (+ ?v_10 (+ ?v_12 (+ ?v_26 (+ ?v_21 (+ ?v_16 (+ ?v_22 (+ ?v_33 ?v_19)))))))) 0) (<= (+ ?v_23 (+ ?v_24 (+ ?v_25 (+ ?v_26 (+ ?v_27 (+ ?v_22 (+ ?v_18 (+ ?v_28 (+ (* 1 x7) ?v_29))))))))) 1) (<= (+ ?v_25 (+ (* 2 x12) (+ ?v_11 (+ ?v_26 (+ ?v_22 (+ ?v_35 (+ ?v_18 (+ ?v_19 (+ ?v_28 ?v_29))))))))) 0) (<= (+ ?v_36 (+ ?v_23 (+ ?v_15 (+ ?v_30 (+ ?v_9 (+ ?v_13 (+ (* 1 x6) (+ ?v_31 (+ (* 2 x13) (* 2 x2)))))))))) 1) (<= (+ ?v_15 (+ ?v_5 (+ ?v_24 (+ ?v_6 (+ ?v_38 (+ ?v_27 (+ (* 2 x3) (+ (* 3 x5) ?v_29)))))))) 1) (<= (+ ?v_32 (+ ?v_24 (+ ?v_6 (+ ?v_33 (+ ?v_18 (+ ?v_0 (+ ?v_27 ?v_34))))))) (- 1)) (<= (+ ?v_26 (+ ?v_31 (+ ?v_5 (+ ?v_24 (+ ?v_30 (+ ?v_6 (+ ?v_34 (+ ?v_35 (+ ?v_39 ?v_8))))))))) 0) (<= (+ ?v_36 (+ ?v_37 (+ ?v_15 (+ ?v_12 (+ ?v_13 (+ ?v_28 (+ ?v_0 (+ ?v_38 (+ ?v_39 ?v_29))))))))) 0))))))
(check-sat)
(exit)
